0	83	89	21	124	96	148	77	69	135	88	
111	0	80	72	195	33	93	39	116	115	118	
110	168	0	123	77	32	145	35	190	105	196	
178	68	161	0	128	47	157	41	139	39	90	
199	144	60	177	0	184	87	198	94	24	101	
146	159	103	164	90	0	72	95	32	129	32	
174	139	150	129	106	69	0	126	123	22	133	
25	175	58	134	53	47	181	0	123	31	30	
96	138	162	188	69	146	160	56	0	35	99	
184	117	106	108	25	117	49	173	112	0	100	
63	80	89	159	114	71	127	124	123	91	0	
